; generated by Theta
; https://github.com/ftsrg/theta/

(set-logic HORN)

; declarations
(declare-fun main_init_0 ((_ FloatingPoint 8 24) (_ BitVec 32) (_ FloatingPoint 8 24) (_ BitVec 32) (_ FloatingPoint 8 24)) Bool)
(declare-fun main_final_2 ((_ FloatingPoint 8 24) (_ BitVec 32) (_ FloatingPoint 8 24) (_ BitVec 32) (_ FloatingPoint 8 24)) Bool)
(declare-fun __loc_76_1 ((_ FloatingPoint 8 24) (_ BitVec 32) (_ FloatingPoint 8 24) (_ BitVec 32) (_ FloatingPoint 8 24)) Bool)
(declare-fun main_error_3 ((_ FloatingPoint 8 24) (_ BitVec 32) (_ FloatingPoint 8 24) (_ BitVec 32) (_ FloatingPoint 8 24)) Bool)

; facts, rules, queries
(assert (forall ((|main::result| (_ FloatingPoint 8 24)) (|main_ret| (_ BitVec 32)) (|main::IN| (_ FloatingPoint 8 24)) (|assume_abort_if_not::cond| (_ BitVec 32)) (|main::x| (_ FloatingPoint 8 24))) (=> true (main_init_0 |main::result| |main_ret| |main::IN| |assume_abort_if_not::cond| |main::x|))))
(assert (forall ((|main::result| (_ FloatingPoint 8 24)) (|main_ret_new| (_ BitVec 32)) (|main::IN| (_ FloatingPoint 8 24)) (|assume_abort_if_not::cond| (_ BitVec 32)) (|main::x| (_ FloatingPoint 8 24)) (|main_ret| (_ BitVec 32))) (=> (and (__loc_76_1 |main::result| |main_ret| |main::IN| |assume_abort_if_not::cond| |main::x|) (and (and (not (= #b00000000000000000000000000000000 (ite (fp.geq |main::result| (fp #b0  #b00000000 #b00000000000000000000000)) #b00000000000000000000000000000001 #b00000000000000000000000000000000))) (not (= #b00000000000000000000000000000000 (ite (fp.lt |main::result| (fp #b0  #b01111111 #b01100110001001001101110)) #b00000000000000000000000000000001 #b00000000000000000000000000000000)))) (= |main_ret_new| #b00000000000000000000000000000000))) (main_final_2 |main::result| |main_ret_new| |main::IN| |assume_abort_if_not::cond| |main::x|))))
(assert (forall ((|main::result_new| (_ FloatingPoint 8 24)) (|main_ret| (_ BitVec 32)) (|main::IN_new| (_ FloatingPoint 8 24)) (|assume_abort_if_not::cond_new| (_ BitVec 32)) (|main::x_new| (_ FloatingPoint 8 24)) (|main::result| (_ FloatingPoint 8 24)) (|main::IN| (_ FloatingPoint 8 24)) (|assume_abort_if_not::cond| (_ BitVec 32)) (|main::x| (_ FloatingPoint 8 24))) (=> (and (main_init_0 |main::result| |main_ret| |main::IN| |assume_abort_if_not::cond| |main::x|) (and (and (and (and (and true true) (= |assume_abort_if_not::cond_new| (ite (and (not (= #b00000000000000000000000000000000 (ite (fp.geq |main::IN_new| (fp #b0  #b00000000 #b00000000000000000000000)) #b00000000000000000000000000000001 #b00000000000000000000000000000000))) (not (= #b00000000000000000000000000000000 (ite (fp.lt |main::IN_new| (fp #b0  #b01111111 #b00000000000000000000000)) #b00000000000000000000000000000001 #b00000000000000000000000000000000)))) #b00000000000000000000000000000001 #b00000000000000000000000000000000))) (not (= |assume_abort_if_not::cond_new| #b00000000000000000000000000000000))) (= |main::x_new| |main::IN_new|)) (= |main::result_new| (fp.add RNE (fp.add RNE (fp.add RNE (fp.add RNE (fp.mul RNE (fp #b0  #b01111110 #b00000000000000000000000) |main::x_new|) (fp.neg (fp.mul RNE (fp.mul RNE (fp #b0  #b01111100 #b00000000000000000000000) |main::x_new|) |main::x_new|))) (fp.mul RNE (fp.mul RNE (fp.mul RNE (fp #b0  #b01111011 #b00000000000000000000000) |main::x_new|) |main::x_new|) |main::x_new|)) (fp.neg (fp.mul RNE (fp.mul RNE (fp.mul RNE (fp.mul RNE (fp #b0  #b01111010 #b01000000000000000000000) |main::x_new|) |main::x_new|) |main::x_new|) |main::x_new|))) (fp #b0  #b01111111 #b00000000000000000000000))))) (__loc_76_1 |main::result_new| |main_ret| |main::IN_new| |assume_abort_if_not::cond_new| |main::x_new|))))
(assert (forall ((|main::result| (_ FloatingPoint 8 24)) (|main_ret| (_ BitVec 32)) (|main::IN| (_ FloatingPoint 8 24)) (|assume_abort_if_not::cond| (_ BitVec 32)) (|main::x| (_ FloatingPoint 8 24))) (=> (and (__loc_76_1 |main::result| |main_ret| |main::IN| |assume_abort_if_not::cond| |main::x|) (not (and (not (= #b00000000000000000000000000000000 (ite (fp.geq |main::result| (fp #b0  #b00000000 #b00000000000000000000000)) #b00000000000000000000000000000001 #b00000000000000000000000000000000))) (not (= #b00000000000000000000000000000000 (ite (fp.lt |main::result| (fp #b0  #b01111111 #b01100110001001001101110)) #b00000000000000000000000000000001 #b00000000000000000000000000000000)))))) (main_error_3 |main::result| |main_ret| |main::IN| |assume_abort_if_not::cond| |main::x|))))
(assert (forall ((|main::result| (_ FloatingPoint 8 24)) (|main_ret| (_ BitVec 32)) (|main::IN| (_ FloatingPoint 8 24)) (|assume_abort_if_not::cond| (_ BitVec 32)) (|main::x| (_ FloatingPoint 8 24))) (=> (main_error_3 |main::result| |main_ret| |main::IN| |assume_abort_if_not::cond| |main::x|) false)))

(check-sat)
(exit)